/* Objective function */
max: +420 X11 +360 X21 +300 X31 +420 X12 +360 X22 +300 X32 +420 X13 +360 X23 +300 X33;

/* Constraints */
Qty1: +X11 +X21 +X31 <= 750;
Qty2: +X12 +X22 +X32 <= 900;
Qty3: +X13 +X23 +X33 <= 450;
Space1: +20 X11 +15 X21 +12 X31 <= 13000;
Space2: +20 X12 +15 X22 +12 X32 <= 12000;
Space3: +20 X13 +15 X23 +12 X33 <= 5000;
Sales1: +X11 +X12 +X13 <= 900;
Sales2: +X21 +X22 +X23 <= 1200;
Sales3: +X31 +X32 +X33 <= 750;
